NAME : in_house_9_6
TYPE : TSP
DIMENSION : 9
EDGE_WEIGHT_TYPE : EXPLICIT
EDGE_WEIGHT_FORMAT : UPPER_ROW
COMMENT : INVERSION_SHIFT=8
EDGE_WEIGHT_SECTION
10
64
2
7
54
60
75
41
58
39
60
31
14
63
58
3
35
26
28
23
16
23
2
43
1
35
67
74
7
70
41
5
65
29
51
6
